c Sudoku solution
p cnf 729 0
151 0
173 0
218 0
227 0
249 0
352 0
377 0
398 0
448 0
168 0
147 0
464 0
486 0
515 0
536 0
562 0
594 0
656 0
672 0
693 0
714 0
732 0
888 0
578 0
895 0
842 0
979 0
997 0
982 0
783 0
874 0
292 0
811 0
837 0
771 0
796 0
745 0
641 0
543 0
961 0
475 0
665 0
255 0
344 0
276 0
199 0
263 0
366 0
946 0
954 0
758 0
767 0
729 0
826 0
913 0
319 0
116 0
122 0
412 0
617 0
457 0
559 0
587 0
491 0
689 0
521 0
624 0
638 0
928 0
935 0
325 0
333 0
231 0
134 0
185 0
284 0
381 0
423 0
439 0
853 0
869 0
